p cnf 68 6
-2 -3 -6 -9 -11 -12 -14 -15 -16 -17 -18 -19 -22 -24 -31 -32 -36 -37 -38 -40 -41 -42 -43 -44 -45 -46 -56 -60 -62 -63 -64 -65 -70 0
-1 -5 -11 -12 -13 -14 -19 -22 -32 -36 -37 -38 -39 -40 -42 -45 -60 -61 -62 0
-2 -3 -6 -9 -12 -15 -16 -17 -18 -19 -24 -31 -32 -38 -39 -40 -41 -43 -44 -45 -46 -56 -61 -62 -63 -64 -65 -70 0
-1 -2 -3 -4 -5 -7 -8 -10 -11 -12 -13 -14 -15 -17 -18 -19 -20 -21 -22 -23 -25 -26 -28 -29 -30 -32 -33 -34 -35 -36 -37 -38 -39 -41 -42 -44 -45 -46 -47 -48 -50 -51 -53 -54 -55 -56 -57 -58 -59 -60 -61 -63 -64 -65 -68 -69 -70 0
-1 -3 -5 -9 -11 -12 -13 -14 -16 -17 -18 -19 -22 -24 -31 -32 -36 -37 -38 -39 -41 -42 -43 -44 -45 -46 -56 -60 -61 -63 -64 -65 -70 0
-1 -3 -4 -5 -7 -8 -10 -11 -12 -13 -14 -16 -17 -18 -19 -20 -21 -22 -25 -26 -28 -29 -30 -32 -33 -34 -35 -36 -37 -38 -39 -41 -42 -43 -44 -45 -46 -47 -49 -50 -53 -54 -55 -56 -57 -58 -59 -60 -61 -63 -64 -65 -66 -67 -68 -69 -70 0
